p edge 40 234
e 1 3
e 1 6
e 1 8
e 1 9
e 1 10
e 1 14
e 1 18
e 1 24
e 1 29
e 1 31
e 1 35
e 2 7
e 2 12
e 2 13
e 2 19
e 2 24
e 2 25
e 2 29
e 2 32
e 2 34
e 2 36
e 2 39
e 3 5
e 3 8
e 3 11
e 3 17
e 3 20
e 3 23
e 3 28
e 3 39
e 3 40
e 4 6
e 4 10
e 4 12
e 4 13
e 4 15
e 4 19
e 4 25
e 4 26
e 4 29
e 4 32
e 4 37
e 4 38
e 5 7
e 5 8
e 5 9
e 5 11
e 5 15
e 5 16
e 5 18
e 5 22
e 5 26
e 5 29
e 5 31
e 5 33
e 6 9
e 6 10
e 6 13
e 6 18
e 6 19
e 6 27
e 6 30
e 6 32
e 6 33
e 7 11
e 7 13
e 7 15
e 7 17
e 7 18
e 7 21
e 7 22
e 7 24
e 7 26
e 7 27
e 7 29
e 7 30
e 7 32
e 8 10
e 8 11
e 8 15
e 8 16
e 8 23
e 8 25
e 8 27
e 8 32
e 8 34
e 8 35
e 9 11
e 9 13
e 9 17
e 9 23
e 9 25
e 9 26
e 9 27
e 9 30
e 9 35
e 9 37
e 9 40
e 10 14
e 10 22
e 10 25
e 10 27
e 10 30
e 11 13
e 11 14
e 11 15
e 11 20
e 11 28
e 11 31
e 11 33
e 12 16
e 12 23
e 12 24
e 12 30
e 12 34
e 12 39
e 13 14
e 13 20
e 13 22
e 13 23
e 13 25
e 13 26
e 13 27
e 13 28
e 13 30
e 13 36
e 13 38
e 14 16
e 14 17
e 14 19
e 14 22
e 14 31
e 14 32
e 14 33
e 14 38
e 15 17
e 15 26
e 15 28
e 15 29
e 15 35
e 15 37
e 15 39
e 16 17
e 16 21
e 16 31
e 16 32
e 16 36
e 16 38
e 16 40
e 17 20
e 17 24
e 17 27
e 17 29
e 17 30
e 17 33
e 17 35
e 17 40
e 18 23
e 18 25
e 18 28
e 18 30
e 18 31
e 18 32
e 18 33
e 18 34
e 18 35
e 18 37
e 18 39
e 19 24
e 19 25
e 19 27
e 19 28
e 19 37
e 20 21
e 20 22
e 20 28
e 20 40
e 21 22
e 21 25
e 21 28
e 21 29
e 21 35
e 22 25
e 22 32
e 22 33
e 22 35
e 22 40
e 23 30
e 23 31
e 23 32
e 23 34
e 24 27
e 24 29
e 24 32
e 24 35
e 24 36
e 25 30
e 25 34
e 25 37
e 26 29
e 26 31
e 26 32
e 26 34
e 26 39
e 26 40
e 27 28
e 27 30
e 27 33
e 27 36
e 27 37
e 27 40
e 28 40
e 29 36
e 29 39
e 30 34
e 30 36
e 30 37
e 30 39
e 30 40
e 31 35
e 31 36
e 31 38
e 32 39
e 33 34
e 33 35
e 33 36
e 33 37
e 34 39
e 35 37
e 35 38
e 36 37
e 36 39
e 37 40
e 38 39
